unsat
(:max-memory                   18.43
 :memory                       18.33
 :nlsat-arith-var              3
 :nlsat-atoms                  15
 :nlsat-bool-var               2
 :nlsat-clauses                10
 :nlsat-conflicts              4
 :nlsat-irrational-assignments 2
 :nlsat-propagations           15
 :nlsat-stages                 4
 :num-allocs                   54336
 :rlimit-count                 2631
 :time                         0.00
 :total-time                   0.02)
